20	5
0	9	3	4	2	1	5	8	7	6	10
1	2	12	9
2	2	17	13
3	3	13	12	17
4	2	15	18
5	1	20
6	0
7	2	18	21
8	1	6
9	1	13
10	1	16
11	1	18
12	1	14
13	1	21
14	1	19
15	1	9
16	1	21
17	1	21
18	1	21
19	1	21
20	1	21
21	0
0	0	0	0	0	0	0
1	1	3	1	2	4	1
2	4	5	4	2	3	4
3	2	3	2	2	4	3
4	3	5	5	2	1	5
5	2	3	3	3	4	2
6	5	1	3	2	1	5
7	9	5	2	3	2	1
8	6	3	4	5	2	5
9	5	4	2	3	2	2
10	3	5	2	3	5	2
11	4	2	1	1	4	1
12	3	1	2	2	2	3
13	10	1	5	2	1	5
14	5	4	2	2	2	1
15	1	5	1	4	2	4
16	5	2	3	5	5	5
17	5	1	1	4	1	3
18	8	2	1	4	5	5
19	1	1	3	4	1	2
20	3	4	5	5	1	5
21	0	0	0	0	0	0
5	5	5	5	5
